nNurses = 161;
nHours = 29;
minHours = 8;
maxHours = 16;
maxConsec = 14;
maxPresence = 13;
demand = [14, 9, 8, 8, 13, 18, 18, 19, 22, 17, 21, 22, 24, 20, 24, 26, 28, 32, 28, 25, 21, 20, 24, 29, 34, 29, 32, 36, 36];
